benchmarks_CP/INST_36x36/45/inst36x36_45_40.dzn
S=6;
start=[|
-1,	-1,	-1,	-1,	-1,	-1,	-1,	-1,	1,	-1,	-1,	2,	-1,	20,	6,	-1,	-1,	-1,	35,	-1,	-1,	27,	16,	-1,	28,	-1,	-1,	-1,	34,	-1,	-1,	-1,	-1,	-1,	4,	29|
-1,	-1,	2,	-1,	1,	12,	-1,	-1,	-1,	-1,	-1,	-1,	21,	-1,	-1,	-1,	-1,	-1,	29,	-1,	26,	-1,	18,	-1,	-1,	15,	-1,	27,	-1,	7,	31,	13,	17,	24,	-1,	-1|
35,	31,	5,	-1,	29,	-1,	-1,	-1,	25,	8,	-1,	7,	33,	28,	-1,	-1,	27,	-1,	34,	23,	10,	-1,	-1,	-1,	4,	-1,	-1,	-1,	-1,	-1,	-1,	-1,	32,	-1,	16,	-1|
7,	-1,	-1,	-1,	30,	-1,	31,	4,	-1,	10,	-1,	-1,	-1,	3,	-1,	23,	36,	34,	2,	33,	-1,	5,	-1,	28,	-1,	21,	25,	-1,	-1,	1,	-1,	8,	27,	-1,	19,	18|
13,	16,	23,	28,	-1,	27,	17,	-1,	-1,	-1,	-1,	24,	8,	-1,	31,	-1,	18,	2,	-1,	-1,	7,	-1,	19,	-1,	5,	-1,	-1,	22,	-1,	-1,	3,	-1,	-1,	34,	-1,	1|
8,	-1,	36,	-1,	-1,	9,	27,	-1,	-1,	-1,	-1,	13,	-1,	-1,	-1,	12,	-1,	-1,	-1,	-1,	-1,	-1,	-1,	-1,	-1,	-1,	-1,	-1,	-1,	-1,	-1,	-1,	5,	-1,	-1,	-1|
18,	34,	-1,	-1,	-1,	30,	-1,	-1,	-1,	-1,	13,	-1,	31,	2,	-1,	3,	-1,	-1,	-1,	-1,	-1,	25,	7,	-1,	24,	-1,	-1,	15,	-1,	33,	6,	-1,	4,	21,	17,	-1|
16,	-1,	-1,	-1,	2,	-1,	-1,	34,	-1,	7,	-1,	-1,	-1,	-1,	-1,	24,	19,	-1,	-1,	32,	4,	26,	-1,	1,	35,	12,	9,	-1,	-1,	-1,	14,	-1,	23,	28,	-1,	-1|
-1,	7,	-1,	4,	19,	-1,	-1,	36,	-1,	-1,	10,	28,	-1,	18,	29,	5,	13,	33,	17,	-1,	-1,	31,	-1,	-1,	30,	-1,	-1,	-1,	14,	25,	16,	12,	-1,	-1,	20,	35|
12,	17,	-1,	35,	5,	33,	-1,	-1,	24,	29,	30,	-1,	-1,	-1,	-1,	36,	-1,	-1,	11,	21,	27,	14,	13,	-1,	-1,	32,	10,	28,	4,	2,	19,	-1,	34,	3,	-1,	-1|
1,	36,	-1,	-1,	22,	-1,	-1,	-1,	-1,	-1,	4,	-1,	-1,	32,	-1,	-1,	-1,	14,	16,	24,	2,	29,	-1,	30,	-1,	-1,	-1,	34,	-1,	21,	-1,	-1,	33,	-1,	31,	-1|
-1,	-1,	6,	26,	-1,	21,	22,	32,	17,	-1,	-1,	-1,	10,	11,	-1,	35,	-1,	-1,	-1,	28,	-1,	-1,	-1,	15,	-1,	-1,	20,	-1,	-1,	-1,	30,	-1,	29,	-1,	-1,	-1|
9,	20,	-1,	1,	12,	22,	-1,	-1,	2,	-1,	-1,	-1,	-1,	17,	24,	-1,	-1,	18,	-1,	29,	-1,	36,	31,	33,	-1,	-1,	-1,	-1,	32,	-1,	5,	35,	19,	10,	-1,	15|
-1,	-1,	10,	32,	-1,	-1,	-1,	-1,	-1,	3,	-1,	-1,	34,	31,	20,	-1,	23,	-1,	25,	-1,	-1,	-1,	-1,	24,	-1,	18,	17,	-1,	-1,	35,	29,	28,	2,	-1,	-1,	16|
33,	-1,	13,	-1,	14,	-1,	25,	23,	-1,	18,	28,	36,	-1,	16,	-1,	9,	1,	-1,	-1,	-1,	22,	8,	-1,	-1,	6,	5,	-1,	-1,	21,	10,	26,	-1,	-1,	31,	30,	17|
17,	-1,	7,	24,	-1,	16,	-1,	-1,	-1,	35,	-1,	27,	22,	-1,	-1,	-1,	21,	-1,	-1,	-1,	-1,	30,	-1,	-1,	-1,	-1,	3,	31,	-1,	29,	-1,	-1,	-1,	25,	-1,	9|
-1,	-1,	-1,	-1,	-1,	-1,	4,	-1,	31,	-1,	11,	17,	15,	14,	-1,	-1,	-1,	29,	-1,	-1,	32,	-1,	-1,	-1,	-1,	-1,	-1,	-1,	9,	16,	34,	6,	18,	-1,	-1,	-1|
28,	-1,	26,	-1,	-1,	-1,	9,	-1,	-1,	19,	-1,	33,	-1,	-1,	5,	8,	30,	4,	-1,	-1,	17,	-1,	10,	-1,	36,	25,	15,	-1,	-1,	-1,	24,	-1,	13,	-1,	32,	-1|
-1,	-1,	18,	14,	35,	-1,	-1,	31,	16,	-1,	1,	32,	-1,	-1,	-1,	-1,	10,	5,	-1,	-1,	3,	-1,	25,	-1,	11,	-1,	-1,	21,	27,	-1,	12,	17,	-1,	-1,	28,	-1|
6,	-1,	27,	30,	16,	-1,	-1,	-1,	9,	-1,	-1,	-1,	-1,	-1,	-1,	-1,	-1,	3,	-1,	8,	35,	-1,	24,	-1,	-1,	1,	-1,	-1,	25,	-1,	-1,	26,	20,	22,	34,	-1|
19,	-1,	20,	10,	4,	-1,	8,	-1,	-1,	-1,	27,	-1,	-1,	-1,	33,	-1,	-1,	-1,	-1,	-1,	28,	2,	26,	9,	-1,	-1,	14,	-1,	7,	12,	1,	24,	30,	-1,	35,	23|
-1,	-1,	-1,	-1,	36,	-1,	-1,	22,	-1,	4,	-1,	-1,	17,	27,	-1,	26,	-1,	-1,	-1,	1,	21,	-1,	-1,	-1,	19,	-1,	31,	-1,	5,	32,	13,	14,	15,	18,	8,	-1|
26,	23,	33,	-1,	-1,	-1,	2,	13,	-1,	36,	-1,	-1,	-1,	-1,	14,	-1,	-1,	-1,	-1,	-1,	-1,	6,	-1,	17,	-1,	34,	-1,	-1,	30,	-1,	27,	-1,	-1,	29,	5,	-1|
-1,	9,	17,	2,	13,	1,	-1,	-1,	34,	-1,	-1,	-1,	-1,	-1,	-1,	-1,	31,	8,	-1,	27,	-1,	22,	14,	19,	-1,	35,	-1,	-1,	-1,	-1,	7,	-1,	21,	-1,	6,	25|
3,	-1,	-1,	22,	-1,	2,	-1,	1,	-1,	-1,	-1,	-1,	28,	-1,	-1,	-1,	5,	19,	-1,	-1,	-1,	34,	-1,	7,	23,	-1,	-1,	-1,	24,	-1,	-1,	27,	26,	-1,	-1,	-1|
-1,	-1,	16,	25,	33,	-1,	29,	2,	-1,	-1,	-1,	-1,	36,	-1,	-1,	21,	4,	-1,	-1,	31,	-1,	13,	27,	-1,	-1,	-1,	-1,	7,	-1,	14,	28,	15,	-1,	35,	24,	30|
-1,	35,	-1,	-1,	-1,	13,	23,	-1,	-1,	15,	-1,	-1,	20,	7,	-1,	34,	-1,	-1,	-1,	26,	33,	-1,	8,	21,	-1,	-1,	2,	-1,	1,	11,	18,	-1,	-1,	16,	3,	-1|
30,	-1,	-1,	6,	-1,	-1,	24,	27,	-1,	5,	34,	-1,	35,	-1,	3,	-1,	-1,	-1,	20,	18,	9,	-1,	2,	36,	-1,	-1,	-1,	-1,	-1,	-1,	-1,	31,	-1,	8,	23,	33|
-1,	-1,	21,	36,	31,	7,	19,	-1,	-1,	-1,	-1,	-1,	30,	-1,	27,	-1,	-1,	24,	-1,	-1,	-1,	3,	-1,	11,	12,	-1,	26,	-1,	-1,	-1,	20,	-1,	1,	17,	29,	-1|
-1,	19,	1,	-1,	-1,	-1,	-1,	-1,	-1,	31,	-1,	-1,	-1,	22,	18,	-1,	-1,	-1,	24,	17,	-1,	-1,	32,	35,	-1,	-1,	30,	33,	-1,	6,	-1,	-1,	-1,	-1,	-1,	-1|
31,	-1,	32,	16,	-1,	-1,	7,	-1,	-1,	-1,	-1,	4,	-1,	-1,	15,	22,	-1,	-1,	33,	-1,	25,	-1,	-1,	14,	21,	9,	-1,	-1,	-1,	-1,	23,	29,	-1,	-1,	-1,	34|
25,	-1,	-1,	18,	27,	4,	-1,	3,	-1,	24,	-1,	30,	32,	12,	8,	7,	-1,	17,	15,	-1,	-1,	-1,	-1,	31,	-1,	2,	23,	-1,	-1,	-1,	-1,	-1,	28,	20,	14,	-1|
-1,	2,	-1,	13,	3,	-1,	35,	28,	6,	-1,	-1,	-1,	-1,	-1,	1,	31,	11,	16,	-1,	-1,	-1,	32,	21,	-1,	17,	27,	-1,	30,	-1,	18,	-1,	-1,	-1,	-1,	12,	8|
5,	-1,	12,	-1,	20,	-1,	15,	-1,	-1,	27,	22,	8,	25,	-1,	35,	-1,	24,	21,	3,	7,	-1,	-1,	-1,	-1,	31,	-1,	6,	-1,	29,	-1,	-1,	-1,	-1,	-1,	2,	-1|
15,	6,	28,	11,	10,	-1,	-1,	-1,	-1,	12,	-1,	-1,	-1,	34,	-1,	30,	33,	-1,	1,	-1,	-1,	-1,	29,	-1,	32,	14,	7,	-1,	-1,	-1,	17,	-1,	31,	19,	-1,	24|
-1,	30,	-1,	9,	-1,	-1,	16,	-1,	-1,	-1,	32,	-1,	-1,	-1,	26,	27,	-1,	-1,	-1,	-1,	-1,	-1,	-1,	-1,	-1,	24,	1,	25,	33,	-1,	-1,	5,	6,	4,	18,	3|];
